StudentsNr = 10;
InstructorsNr = 76;
DaysNr = 2;
SlotsPerDay = 15;
AvailabilitySlotsLenght = 5;
RoomNr = 2;
ProgrammNr = 1;
DegreeNr = 2;
RolesNr = 4;
CoursesNr = 0;
InstructorsProgramm = [{1}, {1}, {1}, {1}, {1}, {1}, {1}, {1}, {1}, {1}, {1}, {1}, {1}, {1}, {1}, {1}, {1}, {1}, {1}, {1}, {1}, {1}, {1}, {1}, {1}, {1}, {1}, {1}, {1}, {1}, {1}, {1}, {1}, {1}, {1}, {1}, {1}, {1}, {1}, {1}, {1}, {1}, {1}, {1}, {1}, {1}, {1}, {1}, {1}, {1}, {1}, {1}, {1}, {1}, {1}, {1}, {1}, {1}, {1}, {1}, {1}, {1}, {1}, {1}, {1}, {1}, {1}, {1}, {1}, {1}, {1}, {1}, {1}, {1}, {1}, {1}];
InstructorRolesPerProgramm = [|{1, 2, 3, 4, 7, 9, 12, 16, 17, 19, 20, 24, 26, 34, 37, 40, 41, 45, 47, 50, 55, 56, 58, 62, 63, 65, 66, 72, 73, 76}, {1, 2, 9, 13, 14, 19, 20, 21, 23, 27, 29, 30, 31, 36, 37, 41, 46, 51, 54, 57, 58, 60, 62, 65, 66, 69, 73, 76}, {3, 9, 11, 12, 14, 16, 17, 18, 19, 21, 27, 30, 33, 36, 40, 44, 46, 47, 49, 52, 53, 54, 58, 62, 63, 65, 66, 72, 73, 75, 76}, {11, 13, 17, 19, 20, 21, 22, 24, 26, 27, 29, 32, 33, 34, 36, 38, 40, 41, 46, 49, 50, 52, 56, 64, 65, 67, 68, 69, 72, 73, 76}|];
InstructorsAvailability = [|1, 1, 1, 1, 0, 0, |1, 1, 1, 1, 1, 1, |0, 0, 1, 1, 1, 1, |1, 0, 0, 0, 1, 1, |1, 1, 1, 0, 1, 1, |1, 1, 0, 0, 1, 1, |0, 1, 1, 1, 1, 1, |1, 1, 1, 1, 1, 1, |1, 1, 1, 1, 1, 1, |1, 1, 1, 1, 1, 0, |1, 1, 0, 0, 0, 1, |0, 0, 0, 1, 1, 1, |1, 1, 0, 1, 1, 1, |1, 1, 1, 0, 1, 0, |0, 0, 1, 1, 0, 0, |0, 1, 1, 1, 1, 1, |0, 1, 1, 1, 0, 1, |0, 1, 1, 0, 1, 1, |1, 1, 1, 0, 1, 1, |0, 1, 1, 1, 0, 0, |1, 1, 1, 1, 1, 1, |0, 1, 1, 1, 1, 1, |0, 1, 0, 1, 1, 1, |0, 0, 1, 1, 1, 1, |1, 1, 0, 1, 1, 1, |1, 1, 0, 1, 1, 1, |1, 1, 1, 1, 1, 1, |1, 0, 0, 1, 1, 1, |1, 1, 0, 1, 0, 1, |1, 1, 1, 1, 1, 0, |0, 0, 1, 1, 1, 1, |1, 1, 1, 1, 1, 0, |0, 1, 1, 0, 1, 0, |0, 0, 1, 1, 1, 1, |1, 1, 1, 1, 1, 1, |0, 1, 1, 1, 1, 1, |0, 1, 1, 1, 1, 1, |0, 1, 1, 1, 1, 1, |0, 0, 1, 1, 0, 0, |1, 1, 0, 0, 0, 0, |1, 0, 1, 1, 1, 1, |0, 1, 1, 1, 1, 0, |1, 1, 1, 1, 1, 0, |0, 1, 1, 1, 1, 1, |1, 1, 0, 1, 1, 1, |0, 1, 1, 1, 1, 1, |0, 1, 1, 1, 1, 1, |0, 0, 0, 1, 1, 1, |1, 1, 1, 1, 1, 1, |1, 1, 1, 1, 1, 1, |1, 1, 0, 1, 1, 1, |0, 0, 0, 1, 1, 1, |0, 0, 1, 1, 1, 1, |1, 1, 0, 1, 1, 1, |1, 1, 1, 1, 1, 1, |0, 1, 0, 1, 0, 1, |1, 1, 1, 1, 1, 1, |1, 1, 1, 1, 0, 0, |1, 1, 1, 1, 1, 1, |0, 0, 0, 1, 1, 1, |0, 0, 1, 1, 1, 1, |0, 0, 0, 1, 0, 1, |0, 1, 1, 1, 1, 1, |1, 1, 1, 1, 1, 1, |1, 1, 1, 1, 1, 1, |1, 0, 1, 1, 1, 1, |1, 0, 1, 1, 1, 1, |0, 1, 1, 1, 1, 1, |1, 1, 1, 1, 1, 0, |0, 1, 1, 0, 1, 1, |1, 0, 0, 1, 1, 1, |1, 0, 0, 1, 1, 0, |0, 1, 1, 1, 1, 1, |1, 1, 1, 1, 1, 1, |0, 0, 1, 1, 1, 0, |1, 1, 1, 1, 0, 1|];
StudentsProgramm = [1, 1, 1, 1, 1, 1, 1, 1, 1, 1];
StudentsDegree = [1, 1, 1, 2, 2, 2, 2, 2, 2, 2];
StudentsSupervisorId = [75, 7, 64, 5, 45, 70, 37, 68, 42, 63];
StudentsCourseIds = [{}, {}, {}, {}, {}, {}, {}, {}, {}, {}];
StudentsAvailability = [|1, 1, 1, 1, 1, 1, |0, 0, 0, 0, 1, 0, |0, 1, 1, 1, 1, 1, |1, 1, 1, 1, 1, 1, |1, 1, 1, 1, 1, 1, |0, 1, 1, 1, 1, 1, |0, 1, 1, 1, 1, 1, |0, 1, 1, 0, 0, 0, |1, 1, 1, 1, 1, 1, |0, 1, 1, 1, 1, 1|];
TheoryticalMinCard = [0, 0, 0, 1, 0, 1, 0, 0, 1, 0];
CoursesInstructorIds = [];
RolesDemands = [20, 17, 20, 29];
RolesContinuity = [3, 1];
ExamLen = [2, 2, 2, 1, 1, 1, 1, 1, 1, 1];
LunchTsMinLen = 0;
LunchStarts = [7..8, 21..24];
SupervisorAvailable = 0;
OptimalLunchLenght = [2, 0];
OptimalStartTs = [1, 0];
OptimalFinishTs = [0, 15];
MinimizeRooms = 400;
RolesSoftContinuity = [|1, 2, 3, 4|0, 4, 4, 4|];
SameDegreeInRoom = 0;
Mergeability = 0;
